38 28
6 592
3 904
18 18
10 942
22 553
23 967
9 643
16 452
19 872
4 492
6 263
26 252
16 112
8 22
8 447
26 975
6 496
2 234
27 165
20 846
3 364
10 906
3 25
6 827
15 517
23 76
16 531
5 916
26 443
9 398
23 309
9 789
6 257
21 160
21 149
9 143
11 977
14 21
